NAME: p01_7090_tsplib0_NORMALIZED
BEST_KNOWN: 0
COMMENT: 0
DIMENSION: 51
CAPACITY: 100
EDGE_WEIGHT_FORMAT: FUNCTION
EDGE_WEIGHT_TYPE: EXACT_2D
NODE_COORD_SECTION
1 0 0
2 7 12
3 19 9
4 22 24
5 -10 -14
6 10 -10
7 -9 7
8 -13 23
9 1 22
10 22 -7
11 21 -19
12 12 1
13 1 -8
14 -25 -15
15 -18 2
16 6 -24
17 22 1
18 -3 -17
19 -13 -7
20 -17 -27
21 27 18
22 32 2
23 12 17
24 -14 17
25 -22 12
26 -23 -2
27 -3 28
28 0 8
29 13 27
30 28 8
31 28 -13
32 7 29
33 8 6
34 16 -30
35 31 -7
36 32 23
37 33 29
38 2 -18
39 15 -5
40 29 -25
41 -25 -34
42 -20 -23
43 -9 -30
44 -25 24
45 0 -25
46 9 -30
47 2 -1
48 -5 -8
49 -5 15
50 18 -12
51 26 -3
DEMAND_SECTION
1 0
2 86
3 77
4 74
5 80
6 88
7 86
8 79
9 71
10 73
11 70
12 85
13 77
14 78
15 80
16 83
17 75
18 71
19 80
20 86
21 80
22 71
23 82
24 82
25 81
26 85
27 84
28 70
29 85
30 72
31 71
32 86
33 85
34 86
35 73
36 86
37 79
38 85
39 79
40 79
41 86
42 73
43 71
44 82
45 83
46 87
47 75
48 79
49 78
50 86
51 81
DEPOT_SECTION
1
-1
EOF